20 90
0 1 13.4
0 2 10.2
0 3 78.3
0 4 56.4
0 5 18.4
0 6 22.5
0 7 12.7
0 8 19.7
0 9 63.1
0 10 69.7
0 11 49.3
0 12 19.3
0 13 13.9
0 14 69.5
0 15 59.1
0 16 82.4
0 17 82.1
0 18 18.1
0 19 74.7
1 2 7.8
1 3 72.1
1 4 48.1
1 5 27.9
1 6 13.0
1 7 26.0
1 8 33.0
1 9 71.5
1 10 78.4
1 11 55.3
1 12 6.0
1 13 6.7
1 14 68.0
1 15 66.2
1 16 82.3
1 17 84.3
1 18 9.7
1 19 67.3
2 3 69.0
2 4 46.5
2 5 20.4
2 6 12.4
2 7 22.2
2 8 29.0
2 9 63.7
2 10 70.6
2 11 47.6
2 12 12.9
2 13 4.0
2 14 62.4
2 15 58.4
2 16 76.2
2 17 77.4
2 18 7.9
2 19 65.0
3 4 25.9
3 5 71.9
3 6 59.2
3 7 87.0
3 8 91.9
3 9 77.6
3 10 83.5
3 11 61.3
3 12 70.7
3 13 66.6
3 14 26.6
3 15 69.0
3 16 36.9
3 17 50.5
3 18 62.6
3 19 9.4
4 5 54.7
4 6 35.2
4 7 66.9
4 8 72.8
4 9 75.1
4 10 82.1
4 11 56.1
4 12 45.9
4 13 43.4
4 14 36.6
4 15 66.6
4 16 51.9
4 17 61.7
4 18 39.2
4 19 19.4
5 6 29.3
5 7 17.9
5 8 20.8
5 9 44.7
5 10 51.4
5 11 31.5
5 12 33.3
5 13 23.6
5 14 57.6
5 15 40.7
5 16 68.6
5 17 66.1
5 18 25.7
5 19 70.5
6 7 34.6
6 8 41.3
6 9 68.2
6 10 75.4
6 11 50.2
6 12 12.2
6 13 8.7
6 14 56.6
6 15 61.7
6 16 71.5
6 17 75.0
6 18 4.5
6 19 54.3
7 8 7.0
7 9 58.9
7 10 64.7
7 11 48.5
7 12 31.9
7 13 26.1
7 14 75.0
7 15 56.5
7 16 86.4
7 17 83.9
7 18 30.1
7 19 84.4
8 9 57.2
8 10 62.4
8 11 49.0
8 12 38.9
8 13 33.0
8 14 78.3
8 15 55.7
8 16 88.8
8 17 85.3
8 18 36.9
8 19 89.8
9 10 7.4
9 11 19.4
9 12 76.1
9 13 65.9
9 14 52.1
9 15 8.6
9 16 52.0
9 17 40.7
9 18 66.2
9 19 81.6
10 11 26.7
10 12 83.2
10 13 73.0
10 14 57.6
10 15 15.5
10 16 55.9
10 17 43.4
10 18 73.4
10 19 88.0
11 12 59.3
11 13 49.2
11 14 38.1
11 15 11.6
11 16 43.2
11 17 36.7
11 18 48.9
11 19 64.1
12 13 10.2
12 14 68.8
12 15 70.4
12 16 83.6
12 17 86.6
12 18 11.0
12 19 65.2
13 14 61.4
13 15 60.2
13 16 75.6
13 17 77.6
13 18 4.3
13 19 62.2
14 15 43.8
14 16 15.7
14 17 25.6
14 18 58.4
14 19 32.9
15 16 45.0
15 17 35.0
15 18 60.1
15 19 73.0
16 17 14.6
16 18 72.9
16 19 45.1
17 18 75.6
17 19 58.0
18 19 58.1
